c FILE /home/rafael/Documents/HappySet/MIHS/inputs/happygen/output/graph_scale_free_k4_p0.1_v100_20241127_083822.txt
c SOURCE This is a scale-free graph formed for the happy graph colouring problem.
c DESCRIPTION It was generated using the problem generator of Rhyd Lewis
c
c GRAPH STATS
c Seed                             = 166303218
c Number of Nodes                  = 100
c Number of colours k              = 4
c Number of pre-assignments        = 10
c Number of links per new node     = 5
c Density                          = 0.0979798
c 
c The degrees of nodes 1 to 100, respectively, are as follows 
c [32, 29, 28, 27, 26, 25, 25, 24, 21, 20, 19, 19, 19, 18, 18, 17, 16, 15, 15, 13, 13, 13, 12, 12, 11, 11, 
c  10, 10, 10, 10, 10, 10, 9, 9, 8, 8, 8, 8, 8, 8, 8, 7, 7, 7, 7, 7, 7, 7, 7, 7, 7, 
c  7, 7, 7, 7, 6, 6, 6, 6, 6, 6, 6, 6, 6, 6, 6, 6, 6, 6, 6, 5, 5, 5, 5, 5, 5, 
c  5, 5, 5, 5, 5, 5, 5, 5, 5, 5, 5, 5, 5, 5, 5, 5, 5, 5, 5, 5, 5, 5, 5, 5] 
c  
p edge 100 485 4
e 1 2
e 1 3
e 1 4
e 1 5
e 1 6
e 1 7
e 1 8
e 1 9
e 1 11
e 1 12
e 1 14
e 1 16
e 1 20
e 1 23
e 1 26
e 1 27
e 1 30
e 1 31
e 1 33
e 1 41
e 1 44
e 1 48
e 1 50
e 1 57
e 1 59
e 1 63
e 1 70
e 1 72
e 1 80
e 1 85
e 1 95
e 1 99
e 2 3
e 2 4
e 2 5
e 2 6
e 2 10
e 2 11
e 2 12
e 2 13
e 2 14
e 2 20
e 2 22
e 2 25
e 2 27
e 2 28
e 2 29
e 2 30
e 2 31
e 2 33
e 2 35
e 2 37
e 2 38
e 2 56
e 2 70
e 2 76
e 2 78
e 2 81
e 2 89
e 2 92
e 3 4
e 3 5
e 3 6
e 3 7
e 3 8
e 3 11
e 3 13
e 3 14
e 3 15
e 3 16
e 3 17
e 3 23
e 3 25
e 3 32
e 3 35
e 3 37
e 3 40
e 3 55
e 3 72
e 3 73
e 3 78
e 3 80
e 3 85
e 3 87
e 3 88
e 3 92
e 4 5
e 4 6
e 4 8
e 4 10
e 4 12
e 4 13
e 4 15
e 4 16
e 4 17
e 4 18
e 4 19
e 4 20
e 4 26
e 4 29
e 4 30
e 4 51
e 4 52
e 4 58
e 4 64
e 4 72
e 4 92
e 4 93
e 4 95
e 4 99
e 5 6
e 5 7
e 5 8
e 5 9
e 5 10
e 5 11
e 5 12
e 5 15
e 5 17
e 5 21
e 5 22
e 5 24
e 5 26
e 5 27
e 5 38
e 5 48
e 5 52
e 5 57
e 5 58
e 5 68
e 5 86
e 5 95
e 6 7
e 6 9
e 6 11
e 6 12
e 6 13
e 6 16
e 6 18
e 6 21
e 6 23
e 6 24
e 6 28
e 6 35
e 6 36
e 6 37
e 6 45
e 6 46
e 6 49
e 6 65
e 6 71
e 6 98
e 7 12
e 7 13
e 7 16
e 7 18
e 7 19
e 7 20
e 7 21
e 7 25
e 7 31
e 7 35
e 7 37
e 7 42
e 7 46
e 7 59
e 7 66
e 7 75
e 7 80
e 7 84
e 7 90
e 7 93
e 7 97
e 8 10
e 8 15
e 8 18
e 8 19
e 8 28
e 8 29
e 8 30
e 8 33
e 8 34
e 8 35
e 8 36
e 8 45
e 8 49
e 8 60
e 8 67
e 8 77
e 8 79
e 8 81
e 8 82
e 8 83
e 9 11
e 9 20
e 9 21
e 9 39
e 9 42
e 9 43
e 9 45
e 9 47
e 9 52
e 9 57
e 9 59
e 9 71
e 9 75
e 9 77
e 9 84
e 9 88
e 9 94
e 9 100
e 10 18
e 10 26
e 10 28
e 10 39
e 10 42
e 10 49
e 10 51
e 10 62
e 10 64
e 10 65
e 10 68
e 10 82
e 10 86
e 10 90
e 10 91
e 10 93
e 11 17
e 11 23
e 11 25
e 11 27
e 11 29
e 11 33
e 11 35
e 11 55
e 11 56
e 11 62
e 11 91
e 11 94
e 11 100
e 12 14
e 12 25
e 12 29
e 12 42
e 12 44
e 12 60
e 12 68
e 12 73
e 12 74
e 12 75
e 12 79
e 12 98
e 12 100
e 13 14
e 13 33
e 13 41
e 13 43
e 13 46
e 13 66
e 13 69
e 13 71
e 13 75
e 13 83
e 13 84
e 13 89
e 13 96
e 13 99
e 14 21
e 14 27
e 14 39
e 14 40
e 14 47
e 14 53
e 14 56
e 14 57
e 14 60
e 14 72
e 14 76
e 14 78
e 14 100
e 15 16
e 15 24
e 15 28
e 15 31
e 15 34
e 15 38
e 15 44
e 15 55
e 15 57
e 15 61
e 15 71
e 15 84
e 15 88
e 15 98
e 16 19
e 16 28
e 16 32
e 16 34
e 16 42
e 16 51
e 16 54
e 16 61
e 16 63
e 16 65
e 16 71
e 17 33
e 17 41
e 17 43
e 17 54
e 17 58
e 17 66
e 17 67
e 17 68
e 17 74
e 17 77
e 17 91
e 17 94
e 18 19
e 18 32
e 18 38
e 18 49
e 18 62
e 18 72
e 18 75
e 18 90
e 18 92
e 18 98
e 19 39
e 19 45
e 19 48
e 19 53
e 19 60
e 19 67
e 19 69
e 19 87
e 19 94
e 19 98
e 20 22
e 20 23
e 20 36
e 20 43
e 20 53
e 20 69
e 20 87
e 20 89
e 21 40
e 21 48
e 21 69
e 21 73
e 21 82
e 21 86
e 21 87
e 21 99
e 22 23
e 22 29
e 22 46
e 22 48
e 22 51
e 22 54
e 22 63
e 22 65
e 22 76
e 22 84
e 23 24
e 23 35
e 23 36
e 23 50
e 23 63
e 23 78
e 24 26
e 24 31
e 24 34
e 24 40
e 24 44
e 24 81
e 24 93
e 24 96
e 25 32
e 25 39
e 25 47
e 25 80
e 25 85
e 25 95
e 26 60
e 26 62
e 26 67
e 26 74
e 26 91
e 26 97
e 27 44
e 27 50
e 27 52
e 27 76
e 27 100
e 28 31
e 28 36
e 28 85
e 28 96
e 29 30
e 29 32
e 29 43
e 29 70
e 30 47
e 30 56
e 30 64
e 30 79
e 30 93
e 31 41
e 31 56
e 31 73
e 31 74
e 32 41
e 32 52
e 32 53
e 32 81
e 32 82
e 33 37
e 33 46
e 33 55
e 34 54
e 34 60
e 34 77
e 34 83
e 34 92
e 35 61
e 36 61
e 36 66
e 36 91
e 37 45
e 37 47
e 37 69
e 38 46
e 38 50
e 38 51
e 38 54
e 39 53
e 39 97
e 39 99
e 40 58
e 40 64
e 40 67
e 40 80
e 41 88
e 41 90
e 41 97
e 42 86
e 42 88
e 43 59
e 43 63
e 44 58
e 44 89
e 45 50
e 45 81
e 46 49
e 47 59
e 47 79
e 48 73
e 48 90
e 49 64
e 49 74
e 50 77
e 50 82
e 51 78
e 51 85
e 52 66
e 52 83
e 53 70
e 53 76
e 54 79
e 54 96
e 55 64
e 55 89
e 55 95
e 56 58
e 57 61
e 59 65
e 61 62
e 62 68
e 63 86
e 65 83
e 66 87
e 67 97
e 68 94
e 69 70
e 70 96
n 3 3
n 21 1
n 34 1
n 35 3
n 46 2
n 53 3
n 71 2
n 72 3
n 79 4
n 100 1
